16 













































42 112 
96 62 
13 9 
105 61 
4 108 
7 1 
94 89 
26 8 
78 10 
54 59 
63 50 
83 88 
95 15 
43 29 
74 64 
52 114 
48 5 
28 99 
109 19 
37 6 
57 67 
55 90 
51 101 
12 41 
93 
111 70 
82 44 
73 79 
25 20 
91 46 
80 68 
75 77 
102 36 
3 113 
47 
24 110 
2 

38 66 
40 33 
39 98 

53 23 
30 
18 104 
32 71 
86 100 
45 
17 107 
92 58 
84 
27 14 
69 60 
81 
56 

49 
65 
34 
22 72 
106 97 
11 
31 35 
103 76 

21 
85 
0 
87 
